
 102   30
  10   10   10   10   10   10   10   10   10   10   10   10   10   10   10   10   10   10   10   10   10   10   10   10   10   10   10   10   10   10

   0   0   0   0   0   0   0   0   0   0   0   0   0   0   0   0   0   0   0   0   0   0   0   0   0   0   0   0   0   0   0  21 2 3 4 5 6 7 8 9 10 11 12 13 14 15 17 22 23 24 27 30 33 
   4   0   0   0   0   0   0   0   0   0   2   0   0   0   0   0   1   0   0   0   0   0   0   0   2   0   0   0   0   0   0  12 64 62 56 54 51 45 42 35 32 26 18 16 
   2   0   0   1   0   0   0   0   0   0   0   0   2   1   1   0   0   0   0   0   0   0   0   0   6   0   0   0   0   0   0  18 101 72 70 64 61 60 55 54 51 49 46 45 44 41 38 35 21 18 
   4   0   0   0   0   0   0   0   0   0   0   0   0   0   6   0   0   0   0   0   0   0   0   0   3   0   1   0   0   0   0  19 101 98 72 71 67 64 63 62 61 60 59 53 52 49 48 47 46 38 20 
   3   0   0   0   0   0   0   0   0   0   0   0   0   0   4   0   0   0   0   0   0   0   2   0   0   0   0   0   0   1   0  19 101 73 70 67 65 61 60 55 54 52 51 49 44 43 42 34 32 28 21 
   5   1   0   0   0   0   0   0   0   0   0   0   3   0   0   0   0   0   0   0   0   0   0   0   0   0   0   0   0   0   0  11 73 71 56 54 49 46 42 38 28 25 19 
   6   7   0   0   0   1   0   0   0   0   0   0   0   5   7   0   0   0   0   0   0   0   0   0   0   0   0   0   0   8   0  18 101 99 69 66 64 61 60 58 54 53 52 49 48 45 41 37 35 29 
   2   0   0   0   0   0   0   1   0   0   5   0   0   0   0   0   0   1   0   0   0   0   0   0  10   0   0   0   0   0   0  24 101 100 99 98 96 92 72 70 69 67 66 65 64 61 60 58 54 53 51 49 45 42 41 35 
   4   0   0   0   3   0   0   0   0   0   0   0   0   0   0   0   7   0   0   0   0   0   0   0   0   0   0   0   0   0   0  18 101 98 97 96 93 72 71 70 69 67 66 62 60 58 55 51 41 28 
   7   0   0   7   0   0   0   0   0   0   0   2   9   0   0   0   0   0   4   0   0   0   0   0   0   0   0   0   0   0   0  13 101 96 95 72 71 65 63 61 59 45 39 38 28 
   6   0   2   0   0   0   0   0   0   0   0   0   0   4   5   1   0   0   0   0   0   0   0   2  10   3   0   0   0   5   0  22 101 98 97 95 94 92 90 72 71 69 66 63 62 61 60 59 58 57 56 50 48 31 
   6   0   0   0   0   0   0   6   1   0   0   0   0   0   0   0   0   0   0   0   0   0   0   4   0   0   0   0   0   0   0  18 101 100 95 94 73 72 65 64 61 60 58 55 50 49 48 45 41 39 
   9   0   0   0   0   0   0   0   7   0   0   0   0   0   0   0   0   0   0   0   0   0   0   0   0   0   0   1   0   0   0  12 100 94 90 89 63 62 61 60 54 51 40 25 
   2   0   0   8   0   0   0   0   0   0   0   0   0   0   0   0   0   0   0   0   0   0   0   6   0   0   8   0   0   0   0  14 97 94 92 71 67 66 58 57 50 47 46 41 36 31 
  10   7   0   0   0   0   1   0   0   0   0   0   0   0   0   7   0   0   0   0   0   0   0  10   0   4   0   0   0   0   0  15 98 97 96 94 92 72 71 70 69 67 66 58 49 41 31 
   5   0   0   0   0   7   0   0   0   0   0   0   0   0   0   0   0   0   0   0   0   0   0   0   0   0   0   0   0   0   0  19 101 100 98 97 94 93 92 91 90 73 72 68 67 61 60 59 52 50 36 
  10   0   0   0   0   0   6   0   0   0   0   0   0  10   8   0   7   5   0   0   0   0   0   0   0   0   8   0   0   0   0  18 100 98 96 95 94 92 89 71 70 69 68 65 60 58 57 53 45 41 
  10   0   0   0   0   0   0   0   7   0   8   0   9   0   0   0   8   0   0   0   1   2   0   0   0   0   0   0   0   0   0  17 98 97 94 92 91 90 73 71 66 65 63 58 57 53 50 47 36 
   7   0   0   0   0   0   7   0   0   0   0   2   0   0   0   0   0   0   0   0   0   0   0   7   0   0   0   0   0   0   1  17 100 99 97 96 95 93 92 70 69 66 63 60 58 57 53 51 41 
  10   0   0   0   0   0   0   0   0   0   0   0   0   0   0   0   5   0   0   0   0   0   0   0  10   0   0   0   0   0   0  17 100 97 95 94 93 92 91 90 87 73 70 66 57 54 51 50 36 
   7   0   0   0   0   0   0   0   0   0   0   0   0   0   0   0   0   0   2   1   0   0   0   0   0   0   0   0   0   8   0  20 98 95 94 93 92 91 90 89 88 81 77 76 71 69 68 62 59 58 53 50 
   8   0   0   7   0   0   0   0   0   0   0   0   0   0   6   0   0   0   0   5   0   0   0   0   0   6   0   8   0   0   0  17 101 99 97 95 94 91 90 89 88 85 81 72 68 61 59 57 50 
   1   0   0   0   0   0   0   0   0   0   0   0   0   4   0   9   0   0   0   0   0   0   0   0   0   0   0   0   0   0   6  14 101 99 96 95 92 91 87 83 82 71 70 51 50 45 
   4   0   0   8   0   4   0   8   0   0   0   0   0   0   0   0   0   0   0   0   0   0   0   0   0   0   0   0   0   0   0  13 93 92 89 88 87 70 69 60 57 54 51 50 42 
   4   0   0   0   0   0   0   0   0   0   0   0   0   0   0   0   0   0   0   0   0   0   0   5   0   9   0   0   0   0   0  11 101 96 95 92 91 86 72 65 57 45 39 
   7   9   0   0   4   0   5   0   0   0   0   0   0   9   0   0   0   0   0   0   0   0   0   0   5   4   0   9   0   4   0  16 101 100 96 94 93 92 90 89 88 87 84 70 66 58 50 49 
   5   0   0   4   0   0   5   0   0   0   0   0   6   0   0   0   0   0   0   0   0   0   0   0   0   0   0   0   0   0   0  11 92 89 87 85 84 71 70 57 50 46 38 
   8   0   0   0   0   6   0   9   0   0   0   7   0   0   0   0   0   0   0   0   0   0   0   0   0   0   0   0   2   0   0   7 100 99 92 82 81 53 35 
   5   0   0   0   0   0   0   0   0   0  10   0   0   0   8   0   9   0   0   0   0   0   0   0   0   0   4   0   9   0   0  14 96 95 94 93 92 88 87 85 84 83 73 71 68 46 
   4   7   0   0   0   0   0   6   4   0   0   0   7   0   0   0   0   0   0   0   0   0   0   0   5   9   0   0   0   0   8  15 92 91 90 88 87 84 82 81 79 71 69 68 67 66 62 
   2   0   0   0   0   0   0   0   0   0   0   0   0   0   0   0   0   0   0   0   0   0   0   0   5   0   0   0   0   0   0  12 93 91 89 88 86 81 80 77 75 65 53 51 
   6   0   0   0   0   0   0   0   0   0   0   0   0   6   7   0   0   0   0   0   0   0   5   6   8  10   0   0   0   0   0  14 100 99 94 93 92 89 86 85 84 81 80 75 59 57 
   7   0   0   0   0   0   6   7   0   2   0   0  10   0   0   0   0   0   0   8   0   0   0   0   0   0   0   0   4   0   0  14 100 95 91 90 89 88 83 82 79 77 75 68 60 53 
   2   0   0   0   6   0   6   0   0   3   0   0   0   0   0   6   0   0   0   0   0   0   0   0   0   0   0   0   0   0   0  12 98 97 91 90 89 86 82 81 79 75 57 53 
   9   0   0   0   6   0   0   4   0   8   0   0   0   0   0   5   6   0   0   0   0   0   0   0   4   0   0   8   0   0   0   8 94 91 90 89 85 84 57 50 
   9   0   0   0   0   7   0   0   9   0   0   0   0   0   0   0   0   0   0   0   0   0   0   0   0   0   0   0   0   0   5  14 99 96 89 88 85 83 82 81 80 79 78 77 75 69 
   8   0   0   0   0   0   0   0   0   0   0   0   0   0   0   0   0   0   0   0   0   0   8   0   6   0   0   0   0   0   0  14 98 91 89 88 85 83 81 79 78 77 76 75 74 72 
   7   0   0   0   0   0   6   0   3   0   0   0   0   0   0   0   0   0   0   0   5   0   5   0   0   0   3   0   0   0   0  11 93 91 90 83 81 80 78 76 75 68 58 
   8   6   0   0   0   0   0   0   0   0   0   0   0   0   0   0   0   0   0   0   0   0   0   0   3   0   0   0   0   0   0  12 98 93 88 87 84 82 80 78 76 75 70 69 
   4   0   0   0   0   0   0   0   0   0   0   5   0   0   0   0   0   0   0   0   0   0   0   0   0   0   0   0   0   0   3   9 101 99 95 91 82 77 76 75 55 
   4   0   0   0   0   0   0   0   0   0   0   0   0   0   0   0   0   0   7   0   0   0   0   0   0   0   0   0   0   0   0   9 91 90 88 86 81 77 76 75 59 
   6   0   0   0   0   7   0   0   0   0   0   0   0   0   0   0   6   0   0   0   0   0   0   6   0   0   0   6   0   0   0  11 94 90 85 84 83 82 81 79 76 75 74 
   8   0   0   0   0   0   0   0   0   0   0   0   0   0   0   0   0   0   0   0   0   0   6   0   0   0   0   0   0   4   0  10 94 92 85 83 82 79 77 76 75 69 
  10   0   0   0   0   0   0   0   0   0   0   5   0   0   0   0   0   0   0   0   0   0   0   6   0   0   0   0   0   0   0   8 100 89 86 83 81 78 76 66 
   5   0   9   0   0   0   0   0   4   0   0   0   0   0   7   0   0   0   0   0   0   7   0   0   0   0   0   5   0   0   0   9 97 93 88 85 84 78 77 76 75 
   5   0   0   0   0   0   0   0   0   0   0   0   0   0   0   0   0   0   0   0   0   0   0   0   0   0   0   0   0   0   0   7 90 80 79 78 77 74 65 
   3   0   0   0   0   0   0   0   0   0   5   0   0   0   0   0   0   0   6   0   0  10   0   0   5   0   0   0   0  10   0   7 84 80 79 78 77 76 75 
   8   0   0   0   5   0   0   0   0   3   0   0   0   5   0   0   0   0   0   0   0   0   0   0   0   0   8   0   0   0   7   7 96 89 86 80 77 76 74 
   9   0   0   0   0   0   0  10   0   0   0   0   7   0   0   0   0   0   0   0   0   0   0   0   0   0   0   0   0   0   0   4 86 78 75 57 
   3   0   5   0   0   0   0   0   0   0   0   0   0   0   0   0   4   0   0   0   0   0   0   0   0   0   0   0   0   0   0   6 86 80 79 78 75 74 
   9   0   5   0   0   0   0   0   9   0   0   0   0   0   7   7   0   0   0   0   0   0   0   0   0   0   0   0   8   7   0   5 85 84 79 76 68 
   3   0   0   0   0   8   0   5   0   0   0   0   0   0   0   0   0   0   0   0   0   0   0   0   0   0   0   0   0   0   0   5 96 80 76 75 74 
   8   0   0   0   0   0   0   0   0   0   0   0   0   4   0   0   3   0   0   0   0   0   5   0   0   0   0   0   0   0   0   4 87 84 78 74 
   7   0   0   0   0   0   0   3   6   0   0   0   0   0   0   0   0   0   7   0   0   0   0   0   0   0   0   0   0   0   0   4 85 82 77 74 
   7   0   0   5   0   0   0   0   0   0   0   0   0   0   0   0   9   0   0   6   4   0   0   0   4   0   0   0   0   0   0   4 92 87 85 81 
   2   0   0   0   0   0   0   0   0   0   0   0   0   0   0   8   0   0   0   0   0   0   0   0   0   0   6   0   0   0   0   4 88 86 77 74 
   2   0   0   0   0   7   0   0   0   0   0   0   0   0   0   5   0   4   0   0   0   4  10   0   0   5   0   0   0   8   0   3 83 77 76 
   9   3   0   0   8   0   0   0   0   0   0   0   0   0   6   0   0   0   4   0   9   0   0   0   0   0   0   0   0   0   0   3 86 82 79 
   8   0   0   0   0   0   0   0   0   0   0   0   0   5   0   0   0   3   0   7  10   0   5   0   0   0   0   0   0   0   0   3 87 79 78 
   3   0   0   0   4   0   0   7   0   0   0   0   0   0   0   0   0   0   0   7   0   5  10   0   0   0   0   0   0   0   6   3 81 80 74 
  10   0   6   0   0   0   0   0   0   0   0   0   0   0   0   0   9   0  10   0   0   0   0   0   0   0   0   0   0   0   8   3 82 75 74 
   1   9   0   0   0   0   0   0   0   0   0   0   0   0   0   0   0   0   3   0   0   0   0   0   0   0   5   0   0   0   0   3 86 83 80 
   6   6   0   0   0   0   0   0   0   5   0   0   0   9   0   0   0   0   0   0   4   0   0   0   0   0   7   7   0   0   0   3 85 83 75 
   3   6   0   5   0   0   0   0   0   0   0   0   0   6   0   6  10   0   0   4   0   0   0   0   0   7   0   0   0   0   0   3 89 80 74 
   7   0   7   0   0   0   0   0   0   0   0   0   8   0   0   0   0   0   0   0   0   0   0   0   7   0   0   0   0   0   0   2 82 76 
   7   0   0   5   0   0   0   0   0   0   0   0   7   0   0   0   0   0   0   0   0   4   0   0   0   0   0   0   0   0   0   2 77 74 
   2   0   0   0   0   6   0   0   0   7   0   0   0   4   0   0   0   0   0   0   0   0   0   0   0   0   0   0   0   0   0   2 95 85 
   9   0   0   9   0   0   0   0   0   0   0   0   0   0   0   0   0   0   0   0   0   0   0   0   0   0   0   0   0   5   0   1 74 
   4   0   0   0   0   4   0   0   0   0   0   0   0   0   0   0   0   7   0   8   0   0   0   0   7   0   0   0   0   0   0   1 74 
   4   0   6   0   0   0   0   0   0   0   7   0   0   0   7   0   0   9   0   0   0   0   0   0   0   6   0   0   0   0   0   1 81 
   8   0   0   0   0   9   0   0   0   8   0   0   0   0   4   0   6   0   0   5   9   0   0   0   0   0   0   0   0   0   0   1 75 
  10   0   0   0   0   0   0   0   0   0   0   0   4   0   0   0   0   0   0   0   0   0   0   0   0   4   0   0   0   8   0   1 84 
  10   0   0   8   0   0   0   0   0   0   0  10   0   0   0   0   7   0   0   0   0   4   0   7   0   0   0   0   0   0  10   1 76 
   7   0   0   0   0   0   0   0   0   0   3   0   0   0   0   0   0   0   0   0   0   0   0   0   9   0   0   0   0   0   0   1 102
   6   0   0   0   0   0   0   0   0   0   0   4  10   0   0   0   0   0   0   6   0  10   7   0   0   0   7   5   0   7   0   1 102
   2   4   0   0   6   0   0   0   0   0   0   0   0   0   0   0   0  10   0   0   7   0   0   0   0   0   0   0   0   0   0   1 102
   2   0   0   0   0   0   0   0   0   0   0   0   0   0   0   0   6   0   0   0   0   0   0   0   0   0   0   0   6   0   0   1 102
   3   0   0   0   0   0   0   0  10   0   0   0   0   0   0   0   0   0   0   0   0   0   0   0   0   0   0   0   7   0   0   1 102
   3   0   0   0   9   0   0   0   0   7   0   0   0   0   2   8   0   0   0   0   0   0   0   0   0   0   0   0   7   0   0   1 102
   2   0   0   0   0   0   8   0  10   8   0   0   0   0   0   0   0   4   0   0   0   0   0   0   0   0   0   0   0   0   0   1 102
   1   0   0   0   7   0   0   0   6   0   0   0   0   0   0   4   0   0   0   0   0   0   0   0   0   0   0   0   0   0   0   1 102
   8   0   0   0   0   0  10   0   0   0   0   0   0   4   0   0   0   0   5   7   0   0   3   0   0   0   0   2   0   0   0   1 102
   6   8   0   0   0   0   0   0   0   0   0   0   0   0   0   0   0   0   0   0   0   0   0   6   0   0   0   9   0   0   0   1 102
   1   0   0   0   0   0   5   0   0   0   0   0   3   0   0   0   0   7  10   0   0   0   0   0   0   0   0   0   0   6   0   1 102
  10   0   0   0   0   0   4   0   0   0   0   0   0   0   0   0   0   0   0   0   0   0   0   0   0   0   0   0   0   0   0   1 102
   6   0  10   0   0   0   0   0   5   0   0   0   0   0   0   0   0   0   0   0   0   6   0   0   5   0   0   0   0   0   0   1 102
   3   0   0   6   0   0   0   0   0   0   0   0   0  10   0   0   0   0   0   0   0   0   0   0   0   0   0   0   5   0   0   1 102
   4   5   0   0   0   0   0   6   4   0   0   0   0   0   0   0   3   5   0   0   0   0   0   0   0   0   0   0   0   0   0   1 102
   8   0   0   0   0   0   0   0   0   0   0   0   2   0   0   0   0   0   6   0   0   0   0   0  10   0   0   0   0   0   0   1 102
   3   0   0   0   0   0   0   0   0   5   0   0   0   0   0   0   0   0   0   0   5   0   0   0   0   0   0   0   0   0   0   1 102
   2   6   0   0   0   0   0   0   0   0   0   0   0   0   0   0   0   0   5   8   0   0   0   0   5   0   0   0   0   0   0   1 102
   4   0   0   0   0   0   0   0   0   0   0   0   7   0   0   0   4   0   0   0   0   0   0   0   0   0   0   0  10   0   0   1 102
   5   0   0   0   0   0   0   0   0   0   0   0   0   9   0   0   0   0   0   8   0   0   0   0   0   5   0   0   0   0   0   1 102
  10   0   0   0   0   0   0   0   0   0   0  10   0   0   0   0   0   0   0   0   0   0   0   0   3   0   0   0   0   0   0   1 102
   1   0   4   0   5   0   0   0   3   0   8   9   0   0   7   6   0  10   0   0   0   9   0   0   0   0   6   0   3   3   0   1 102
  10   0   0   5   0   0   0   0   0   0   0   0   0   0   0   0   4   0   7   0   0   5   0   0   0   0   0   0   5   0   0   1 102
   3   0   0   0   0   0   0   0  10   0   0   0   7   0   0   0   0   0   8   4   0   0   0   0   0   0   8   0   0   0   0   1 102
  10   0   0   0   5   0   0   0   0  10   0   0   0   7   0   0   0   6   0   0   0   0   0   9   0   0   0   0   0   0   0   1 102
   9   0   0   0   0   0   0   0   2   0   0   0   3   0   0   0   0   0   0   0   0   0   0   4   0   0   0   0   0   0   0   1 102
   1   0   0   0  10   0   9   0   0   0   0   0   4   0   0   0   0   7   0   0   0   0   0   0   0   0   7   0   0   0   0   1 102
   7   0   0   0   0   0   0   0   8   0   0   0   0   0  10   0   0   0   0   0   0   0   0   0   0   0   0   0   0   0   0   1 102
   0   0   0   0   0   0   0   0   0   0   0   0   0   0   0   0   0   0   0   0   0   0   0   0   0   0   0   0   0   0   0   0 
